Problem:    
Rows:       260
Columns:    89 (72 integer, 72 binary)
Non-zeros:  812
Status:     INTEGER OPTIMAL
Objective:  value = 1.796512 (MINimum)

   No.   Row name        Activity     Lower bound   Upper bound
------ ------------    ------------- ------------- -------------
     1 r.5                   1.79651             0               
     2 r.6                  -999.325      -999.347               
     3 r.7                    1001.8             0               
     4 r.8                  -999.038       -999.06               
     5 r.9                    1001.8             0               
     6 r.10                 -998.982      -999.356               
     7 r.11                  1.79651             0               
     8 r.12                 -999.085      -999.107               
     9 r.13                   1001.8             0               
    10 r.14                 -999.626      -999.951               
    11 r.15                  1.79651             0               
    12 r.16                 -999.877      -999.899               
    13 r.17                  1.79651             0               
    14 r.18                   1.0983      -999.928               
    15 r.19                   1001.8             0               
    16 r.20                 -998.902      -999.864               
    17 r.21                   1001.8             0               
    18 r.22                 -999.675      -999.706               
    19 r.23                  1.79651             0               
    20 r.24                 -999.579      -999.601               
    21 r.25                   1001.8             0               
    22 r.26                 -999.978      -999.978               
    23 r.27                  1.79651             0               
    24 r.28                   0.0223      -999.951               
    25 r.29                  1.79651             0               
    26 r.30                  1.79651      -999.486               
    27 r.31                   1001.8             0               
    28 r.32                 -998.203      -999.302               
    29 r.33                   1001.8             0               
    30 r.34                 -998.203      -999.222               
    31 r.35                  1.79651             0               
    32 r.36                  1.79651      -998.985               
    33 r.37                        1             1             = 
    34 r.38                        1             1             = 
    35 r.39                        1             1             = 
    36 r.40                        1             1             = 
    37 r.41                        1             1             = 
    38 r.42                        1             1             = 
    39 r.43                        1             1             = 
    40 r.44                        1             1             = 
    41 r.45                     1001             2               
    42 r.46                    -1001         -1001               
    43 r.47                  3000.34      -999.356               
    44 r.48                     1001             2               
    45 r.49                    -1001         -1001               
    46 r.50                  999.953      -999.107               
    47 r.51                     1001             2               
    48 r.52                    -1001         -1001               
    49 r.53                   2999.7      -999.951               
    50 r.54                     1001             2               
    51 r.55                    -1001         -1001               
    52 r.56                  999.161      -999.899               
    53 r.57                     1000             2               
    54 r.58                    -1000         -1001               
    55 r.59                  3000.42      -999.928               
    56 r.60                        2             2               
    57 r.61                       -2         -1001               
    58 r.62                 -999.864      -999.864               
    59 r.63                     1001             2               
    60 r.64                    -1001         -1001               
    61 r.65                  2999.65      -999.706               
    62 r.66                     1001             2               
    63 r.67                    -1001         -1001               
    64 r.68                  999.459      -999.601               
    65 r.69                 -999.347      -999.347               
    66 r.70                  -999.06       -999.06               
    67 r.71                 -999.347      -999.347               
    68 r.72                  -999.06       -999.06               
    69 r.73                  1001.12      -999.486               
    70 r.74                  1.12134      -999.302               
    71 r.75                 0.834456      -999.486               
    72 r.76                 -999.166      -999.302               
    73 r.77                  1.12134      -999.222               
    74 r.78                  1001.12      -998.985               
    75 r.79                 -999.166      -999.222               
    76 r.80                 0.834456      -998.985               
    77 r.81                     1001             2               
    78 r.82                    -1001         -1001               
    79 r.83                  999.657      0.652871               
    80 r.84                     1001             2               
    81 r.85                    -1001         -1001               
    82 r.86                  3000.05      0.939756               
    83 r.87                        2             2               
    84 r.88                       -2         -1001               
    85 r.89                -0.644236      -999.951               
    86 r.90                     1000             2               
    87 r.91                    -1000         -1001               
    88 r.92                  1999.21      -999.899               
    89 r.93                     1001             2               
    90 r.94                    -1001         -1001               
    91 r.95                  2000.08      -999.928               
    92 r.96                     1001             2               
    93 r.97                    -1001         -1001               
    94 r.98                  3000.18      -999.864               
    95 r.99                        2             2               
    96 r.100                      -2         -1001               
    97 r.101               -0.693514      -999.706               
    98 r.102                    1000             2               
    99 r.103                   -1000         -1001               
   100 r.104                 1999.51      -999.601               
   101 r.105                -999.004      -999.356               
   102 r.106                -999.107      -999.107               
   103 r.107                -999.004      -999.356               
   104 r.108                -999.107      -999.107               
   105 r.109                0.778411      -999.486               
   106 r.110                -999.222      -999.302               
   107 r.111                 1000.88      -999.486               
   108 r.112                0.881268      -999.302               
   109 r.113                       2             2               
   110 r.114                      -2         -1001               
   111 r.115                -999.222      -999.222               
   112 r.116                    1000             2               
   113 r.117                   -1000         -1001               
   114 r.118                 3000.88      -998.985               
   115 r.119                    1001             2               
   116 r.120                   -1001         -1001               
   117 r.121                  1000.3      0.652871               
   118 r.122                    1001             2               
   119 r.123                   -1001         -1001               
   120 r.124                 3000.84      0.939756               
   121 r.125                       2             2               
   122 r.126                      -2         -1001               
   123 r.127                0.644236      0.644236               
   124 r.128                    1000             2               
   125 r.129                   -1000         -1001               
   126 r.130                 2000.79      0.892944               
   127 r.131                    1001             2               
   128 r.132                   -1001         -1001               
   129 r.133                 2000.72      -999.928               
   130 r.134                    1001             2               
   131 r.135                   -1001         -1001               
   132 r.136                 3000.98      -999.864               
   133 r.137                       2             2               
   134 r.138                      -2         -1001               
   135 r.139               -0.049278      -999.706               
   136 r.140                    1000             2               
   137 r.141                   -1000         -1001               
   138 r.142                  2000.3      -999.601               
   139 r.143                -999.648      -999.951               
   140 r.144                -999.899      -999.899               
   141 r.145                -999.648      -999.951               
   142 r.146                -999.899      -999.899               
   143 r.147                 1.42265      -999.486               
   144 r.148                -998.577      -999.302               
   145 r.149                 1001.67      -999.486               
   146 r.150                 1.67332      -999.302               
   147 r.151                -998.577      -999.222               
   148 r.152                 1.42265      -998.985               
   149 r.153                 1.67332      -999.222               
   150 r.154                 1001.67      -998.985               
   151 r.155                    1000             2               
   152 r.156                   -1000         -1001               
   153 r.157                 999.577      0.652871               
   154 r.158                       2             2               
   155 r.159                      -2         -1001               
   156 r.160                 999.864      0.939756               
   157 r.161                    1001             2               
   158 r.162                   -1001         -1001               
   159 r.163                 1999.92      0.644236               
   160 r.164                    1001             2               
   161 r.165                   -1001         -1001               
   162 r.166                 999.817      0.892944               
   163 r.167                    1001             2               
   164 r.168                   -1001         -1001               
   165 r.169                 1999.28      0.049278               
   166 r.170                    1001             2               
   167 r.171                   -1001         -1001               
   168 r.172                 999.025      0.100897               
   169 r.173                    1001             2               
   170 r.174                   -1001         -1001               
   171 r.175                 1999.23      -999.706               
   172 r.176                    1001             2               
   173 r.177                   -1001         -1001               
   174 r.178                 999.323      -999.601               
   175 r.179                   1.076      -999.928               
   176 r.180                -998.924      -999.864               
   177 r.181                   1.076      -999.928               
   178 r.182                -998.924      -999.864               
   179 r.183                0.698211      -999.486               
   180 r.184                -999.302      -999.302               
   181 r.185                0.698211      -999.486               
   182 r.186                -999.302      -999.302               
   183 r.187                    1001             2               
   184 r.188                   -1001         -1001               
   185 r.189                  2000.7      -999.222               
   186 r.190                    1001             2               
   187 r.191                   -1001         -1001               
   188 r.192                  2000.7      -998.985               
   189 r.193                    1001             2               
   190 r.194                   -1001         -1001               
   191 r.195                 1000.35      0.652871               
   192 r.196                    1001             2               
   193 r.197                   -1001         -1001               
   194 r.198                 3000.54      0.939756               
   195 r.199                       2             2               
   196 r.200                      -2         -1001               
   197 r.201                0.693514      0.644236               
   198 r.202                    1000             2               
   199 r.203                   -1000         -1001               
   200 r.204                 2000.49      0.892944               
   201 r.205                       2             2               
   202 r.206                      -2         -1001               
   203 r.207                0.049278      0.049278               
   204 r.208                    1000             2               
   205 r.209                   -1000         -1001               
   206 r.210                  1999.7      0.100897               
   207 r.211                    1001             2               
   208 r.212                   -1001         -1001               
   209 r.213                 2000.77        0.0724               
   210 r.214                    1001             2               
   211 r.215                   -1001         -1001               
   212 r.216                 3000.68      0.136245               
   213 r.217                -999.698      -999.706               
   214 r.218                -999.601      -999.601               
   215 r.219                -999.698      -999.706               
   216 r.220                -999.601      -999.601               
   217 r.221                    1001             2               
   218 r.222                   -1001         -1001               
   219 r.223                 2001.47      -999.486               
   220 r.224                    1001             2               
   221 r.225                   -1001         -1001               
   222 r.226                 3001.38      -999.302               
   223 r.227                -998.528      -999.222               
   224 r.228                 1.47193      -998.985               
   225 r.229                 1.37505      -999.222               
   226 r.230                 1001.38      -998.985               
   227 r.231                 1.77421      -999.486               
   228 r.232                -998.226      -999.302               
   229 r.233                 1.77421      -999.486               
   230 r.234                -998.226      -999.302               
   231 r.235                    1001             2               
   232 r.236                   -1001         -1001               
   233 r.237                 1998.53        0.2945               
   234 r.238                    1001             2               
   235 r.239                   -1001         -1001               
   236 r.240                 998.625      0.399163               
   237 r.241                    1001             2               
   238 r.242                   -1001         -1001               
   239 r.243                    2000      -999.222               
   240 r.244                    1001             2               
   241 r.245                   -1001         -1001               
   242 r.246                    2000      -998.985               
   243 r.247                       2             2               
   244 r.248                      -2         -1001               
   245 r.249                 999.222      0.644236               
   246 r.250                    1000             2               
   247 r.251                   -1000         -1001               
   248 r.252                 999.119      0.892944               
   249 r.253                    1001             2               
   250 r.254                   -1001         -1001               
   251 r.255                  1999.3        0.0724               
   252 r.256                    1001             2               
   253 r.257                   -1001         -1001               
   254 r.258                  1999.3      0.136245               
   255 r.259                    1001             2               
   256 r.260                   -1001         -1001               
   257 r.261                    2000        0.5141               
   258 r.262                    1001             2               
   259 r.263                   -1001         -1001               
   260 r.264                    2000      0.698211               

   No. Column name       Activity     Lower bound   Upper bound
------ ------------    ------------- ------------- -------------
     1 tt                    1.79651             0               
     2 s_1_1        *              0             0             1 
     3 t_1_1                 1001.12             0               
     4 s_1_8        *              1             0             1 
     5 s_1_7        *              0             0             1 
     6 s_2_1        *              1             0             1 
     7 t_2_1                0.834456             0               
     8 s_2_8        *              0             0             1 
     9 s_2_7        *              1             0             1 
    10 s_1_2        *              1             0             1 
    11 t_1_2                0.778411             0               
    12 s_2_2        *              0             0             1 
    13 t_2_2                 1000.88             0               
    14 s_1_3        *              1             0             1 
    15 t_1_3                 1.42265             0               
    16 s_2_3        *              0             0             1 
    17 t_2_3                 1001.67             0               
    18 s_1_4        *              0             0             1 
    19 t_1_4                0.698211             0               
    20 s_2_4        *              1             0             1 
    21 t_2_4                0.698211             0               
    22 s_1_5        *              1             0             1 
    23 t_1_5                 1.47193             0               
    24 s_2_5        *              0             0             1 
    25 t_2_5                 1001.38             0               
    26 s_1_6        *              1             0             1 
    27 t_1_6                 1.77421             0               
    28 s_2_6        *              0             0             1 
    29 t_2_6                 1.77421             0               
    30 t_1_7                       0             0               
    31 t_2_7                       0             0               
    32 t_1_8                       0             0               
    33 t_2_8                       0             0               
    34 r_1_1_2      *              1             0             1 
    35 u_1_1_2      *              0             0             1 
    36 r_2_1_2      *              1             0             1 
    37 u_2_1_2      *              0             0             1 
    38 r_1_1_3      *              1             0             1 
    39 u_1_1_3      *              0             0             1 
    40 r_2_1_3      *              1             0             1 
    41 u_2_1_3      *              0             0             1 
    42 r_1_1_4      *              1             0             1 
    43 u_1_1_4      *              0             0             1 
    44 r_2_1_4      *              0             0             1 
    45 u_2_1_4      *              1             0             1 
    46 r_1_1_5      *              1             0             1 
    47 u_1_1_5      *              0             0             1 
    48 r_2_1_5      *              1             0             1 
    49 u_2_1_5      *              0             0             1 
    50 r_1_2_3      *              0             0             1 
    51 u_1_2_3      *              0             0             1 
    52 r_2_2_3      *              1             0             1 
    53 u_2_2_3      *              0             0             1 
    54 r_1_2_4      *              1             0             1 
    55 u_1_2_4      *              0             0             1 
    56 r_2_2_4      *              1             0             1 
    57 u_2_2_4      *              0             0             1 
    58 r_1_2_5      *              0             0             1 
    59 u_1_2_5      *              0             0             1 
    60 r_2_2_5      *              1             0             1 
    61 u_2_2_5      *              0             0             1 
    62 r_1_2_8      *              0             0             1 
    63 u_1_2_8      *              1             0             1 
    64 r_2_2_8      *              1             0             1 
    65 u_2_2_8      *              0             0             1 
    66 r_1_3_4      *              1             0             1 
    67 u_1_3_4      *              0             0             1 
    68 r_2_3_4      *              1             0             1 
    69 u_2_3_4      *              0             0             1 
    70 r_1_3_5      *              0             0             1 
    71 u_1_3_5      *              0             0             1 
    72 r_2_3_5      *              1             0             1 
    73 u_2_3_5      *              0             0             1 
    74 r_1_4_5      *              1             0             1 
    75 u_1_4_5      *              0             0             1 
    76 r_2_4_5      *              1             0             1 
    77 u_2_4_5      *              0             0             1 
    78 r_1_4_8      *              1             0             1 
    79 u_1_4_8      *              0             0             1 
    80 r_2_4_8      *              1             0             1 
    81 u_2_4_8      *              0             0             1 
    82 r_1_5_7      *              1             0             1 
    83 u_1_5_7      *              0             0             1 
    84 r_2_5_7      *              1             0             1 
    85 u_2_5_7      *              0             0             1 
    86 r_1_7_8      *              1             0             1 
    87 u_1_7_8      *              0             0             1 
    88 r_2_7_8      *              1             0             1 
    89 u_2_7_8      *              0             0             1 

Integer feasibility conditions:

KKT.PE: max.abs.err = 4.55e-13 on row 194
        max.rel.err = 7.57e-17 on row 194
        High quality

KKT.PB: max.abs.err = 6.94e-17 on row 203
        max.rel.err = 6.61e-17 on row 203
        High quality

End of output
